p edge 36 144
e 1 8
e 1 10
e 1 20
e 1 35
e 2 6
e 2 8
e 2 11
e 2 13
e 3 2
e 3 15
e 3 32
e 3 34
e 4 8
e 4 15
e 4 23
e 4 24
e 5 17
e 5 19
e 5 25
e 5 29
e 6 9
e 6 16
e 6 34
e 6 36
e 7 27
e 7 27
e 7 27
e 7 32
e 8 6
e 8 19
e 8 20
e 8 20
e 9 4
e 9 6
e 9 19
e 9 31
e 10 2
e 10 17
e 10 32
e 10 35
e 11 10
e 11 10
e 11 12
e 11 34
e 12 14
e 12 15
e 12 21
e 12 33
e 13 11
e 13 12
e 13 30
e 13 31
e 14 9
e 14 9
e 14 10
e 14 20
e 15 5
e 15 10
e 15 14
e 15 34
e 16 18
e 16 21
e 16 33
e 16 35
e 17 1
e 17 14
e 17 22
e 17 30
e 18 3
e 18 10
e 18 19
e 18 28
e 19 3
e 19 16
e 19 16
e 19 33
e 20 8
e 20 15
e 20 25
e 20 25
e 21 13
e 21 16
e 21 27
e 21 33
e 22 12
e 22 20
e 22 25
e 22 27
e 23 1
e 23 9
e 23 20
e 23 25
e 24 19
e 24 29
e 24 31
e 24 35
e 25 3
e 25 11
e 25 12
e 25 28
e 26 6
e 26 11
e 26 22
e 26 36
e 27 1
e 27 3
e 27 17
e 27 34
e 28 21
e 28 21
e 28 26
e 28 27
e 29 2
e 29 6
e 29 24
e 29 34
e 30 5
e 30 14
e 30 28
e 30 34
e 31 12
e 31 12
e 31 22
e 31 34
e 32 4
e 32 6
e 32 10
e 32 17
e 33 6
e 33 7
e 33 22
e 33 23
e 34 12
e 34 21
e 34 24
e 34 29
e 35 4
e 35 4
e 35 18
e 35 21
e 36 1
e 36 12
e 36 17
e 36 19
